226 169612
1 74 75 73 72 16 17 19 21 22 23 24 28 48 33 32 31 30 34 35 36 45 46 47 43 88 137 138 139 145 147 140 143 180 181 182 183 184 185 186 187 188 189 190 191 192 193 194 195 196 197 198 199 200 201 202 121 110 103 66 69 68 12 11 9 10 14 15 18 20 25 26 27 29 37 38 39 40 41 42 44 49 65 67 76 77 78 79 80 81 82 83 84 85 86 112 167 166 165 164 163 162 161 160 159 158 157 156 155 154 153 152 151 144 146 104 105 113 106 107 116 108 109 117 118 135 179 178 177 176 175 174 173 172 171 170 169 168 150 142 148 149 141 136 134 131 130 125 132 124 123 122 129 127 128 120 119 126 101 102 94 93 92 100 99 91 90 98 97 96 89 87 95 50 51 52 53 54 55 56 57 58 59 60 61 62 63 64 133 203 204 205 206 207 208 209 210 211 212 213 214 215 216 217 218 219 220 221 222 223 224 225 226 115 114 111 70 71 13 8 7 6 5 4 3 2 
